Route #1: 28 42 78 65 25
Route #2: 38 47 26 48 96 64 34
Route #3: 76 55 16 69
Route #4: 63 77 3
Route #5: 39 10 18
Route #6: 74 13 4
Route #7: 8 17
Route #8: 40 82 72 57 59
Route #9: 71 62 99 98 89
Route #10: 49 37 6 14
Route #11: 75 93
Route #12: 54 70 1
Route #13: 83 51 81
Route #14: 100 61 23
Route #15: 7 2 45 43 29 36 87 88
Route #16: 68 90 84 66
Route #17: 80 94 56 21
Route #18: 86 9 92
Route #19: 20 41 22 15
Route #20: 27 97 19
Route #21: 52 91 50
Route #22: 58 12 5
Route #23: 30 85 11 79
Route #25: 60 67 44
Route #26: 24 95 73 53 33 32
Route #27: 35 46 31
